p cnf 7230 17
-566 -2294 2785 0
-570 -2368 -2790 0
-568 -2292 -2786 0
570 -2791 0
568 -2787 0
2790 2791 0
2788 2789 0
2066 -2789 0
-2066 -2788 0
2786 2787 0
2368 -2791 0
2292 -2787 0
-572 -2366 2793 0
-2784 -2785 0
2366 -2793 0
572 -2793 0
2784 2785 0
